JOBS = 1..3;
MACHINES = 1..7;
SPEED = 2;
time = array3d(JOBS,MACHINES,1..SPEED,[193,34,90,16,246,44,28,5,188,33,200,36,249,44,223,40,206,37,72,13,50,9,173,31,237,42,220,39,73,13,219,39,175,31,254,45,77,13,165,29,149,26]);
energy = array3d(JOBS,MACHINES,1..SPEED,[14,71,40,85,8,64,75,95,15,71,13,69,8,64,10,67,12,69,48,87,60,91,17,73,9,65,11,67,48,87,11,67,17,73,7,63,46,87,19,74,22,77]);
precedence = array2d(JOBS,MACHINES,[0,2,5,6,3,1,4,5,3,2,6,1,0,4,4,1,0,6,3,2,5]);
ME = 1;
TE = 155;
st_old = array2d(JOBS,MACHINES,[0,437,604,658,527,237,560,385,287,215,608,42,0,326,312,31,0,538,235,70,388]);
SpeedScaling = array2d(JOBS,MACHINES,[1,1,2,2,2,1,2,1,2,1,1,1,2,2,1,2,2,2,1,1,1]);
